p tw 25 75
0 1
0 17
0 19
0 12
0 22
0 5
0 18
1 4
1 10
1 2
1 12
1 17
1 11
2 3
2 19
2 18
2 11
3 19
3 21
3 7
3 17
3 5
3 8
3 4
3 20
4 5
4 23
5 12
5 20
5 6
5 13
5 7
6 7
6 18
6 24
6 22
7 13
7 23
7 12
7 22
7 24
7 21
7 19
8 9
8 11
8 24
8 19
9 23
9 21
10 17
10 16
10 18
10 22
11 12
12 21
12 23
12 14
13 14
13 24
13 22
14 22
14 15
14 23
15 16
15 19
16 18
16 23
17 18
17 19
17 22
19 23
19 24
19 22
20 24
21 24
